(set-logic ALL)
(declare-fun distances () (Array Int (Array Int Int)))
(declare-fun s () (Array Int Int))
(declare-fun x_0_1 () Int)
(declare-fun x_0_2 () Int)
(declare-fun x_0_3 () Int)
(declare-fun x_1_1 () Int)
(declare-fun x_1_2 () Int)
(declare-fun x_1_3 () Int)
(declare-fun x_2_1 () Int)
(declare-fun x_2_2 () Int)
(declare-fun x_2_3 () Int)
(declare-fun x_3_1 () Int)
(declare-fun x_3_2 () Int)
(declare-fun x_3_3 () Int)
(declare-fun x_4_1 () Int)
(declare-fun x_4_2 () Int)
(declare-fun x_4_3 () Int)
(declare-fun x_5_1 () Int)
(declare-fun x_5_2 () Int)
(declare-fun x_5_3 () Int)
(declare-fun x_6_1 () Int)
(declare-fun x_6_2 () Int)
(declare-fun x_6_3 () Int)
(declare-fun x_7_1 () Int)
(declare-fun x_7_2 () Int)
(declare-fun x_7_3 () Int)
(declare-fun x_0_4 () Int)
(declare-fun x_0_0 () Int)
(declare-fun x_1_4 () Int)
(declare-fun x_1_0 () Int)
(declare-fun x_2_4 () Int)
(declare-fun x_2_0 () Int)
(declare-fun x_3_4 () Int)
(declare-fun x_3_0 () Int)
(declare-fun x_4_4 () Int)
(declare-fun x_4_0 () Int)
(declare-fun x_5_4 () Int)
(declare-fun x_5_0 () Int)
(declare-fun x_6_4 () Int)
(declare-fun x_6_0 () Int)
(declare-fun x_7_4 () Int)
(declare-fun x_7_0 () Int)
(declare-fun load_0 () Int)
(declare-fun load_1 () Int)
(declare-fun load_2 () Int)
(declare-fun load_3 () Int)
(declare-fun load_4 () Int)
(declare-fun load_5 () Int)
(declare-fun load_6 () Int)
(declare-fun load_7 () Int)
(declare-fun y_0 () Int)
(declare-fun y_1 () Int)
(declare-fun y_2 () Int)
(declare-fun y_3 () Int)
(declare-fun y_4 () Int)
(declare-fun y_5 () Int)
(declare-fun y_6 () Int)
(declare-fun y_7 () Int)
(declare-fun max_distance () Int)
(assert (= (select (select distances 0) 0) 0))
(assert (= (select (select distances 0) 1) 56))
(assert (= (select (select distances 0) 2) 86))
(assert (= (select (select distances 0) 3) 77))
(assert (= (select (select distances 0) 4) 81))
(assert (= (select (select distances 0) 5) 128))
(assert (= (select (select distances 0) 6) 107))
(assert (= (select (select distances 0) 7) 154))
(assert (= (select (select distances 0) 8) 70))
(assert (= (select (select distances 0) 9) 93))
(assert (= (select (select distances 0) 10) 53))
(assert (= (select (select distances 1) 0) 56))
(assert (= (select (select distances 1) 1) 0))
(assert (= (select (select distances 1) 2) 79))
(assert (= (select (select distances 1) 3) 31))
(assert (= (select (select distances 1) 4) 62))
(assert (= (select (select distances 1) 5) 87))
(assert (= (select (select distances 1) 6) 61))
(assert (= (select (select distances 1) 7) 107))
(assert (= (select (select distances 1) 8) 37))
(assert (= (select (select distances 1) 9) 37))
(assert (= (select (select distances 1) 10) 24))
(assert (= (select (select distances 2) 0) 86))
(assert (= (select (select distances 2) 1) 79))
(assert (= (select (select distances 2) 2) 0))
(assert (= (select (select distances 2) 3) 109))
(assert (= (select (select distances 2) 4) 17))
(assert (= (select (select distances 2) 5) 43))
(assert (= (select (select distances 2) 6) 110))
(assert (= (select (select distances 2) 7) 68))
(assert (= (select (select distances 2) 8) 43))
(assert (= (select (select distances 2) 9) 69))
(assert (= (select (select distances 2) 10) 55))
(assert (= (select (select distances 3) 0) 87))
(assert (= (select (select distances 3) 1) 31))
(assert (= (select (select distances 3) 2) 109))
(assert (= (select (select distances 3) 3) 0))
(assert (= (select (select distances 3) 4) 92))
(assert (= (select (select distances 3) 5) 116))
(assert (= (select (select distances 3) 6) 30))
(assert (= (select (select distances 3) 7) 77))
(assert (= (select (select distances 3) 8) 66))
(assert (= (select (select distances 3) 9) 40))
(assert (= (select (select distances 3) 10) 55))
(assert (= (select (select distances 4) 0) 81))
(assert (= (select (select distances 4) 1) 62))
(assert (= (select (select distances 4) 2) 17))
(assert (= (select (select distances 4) 3) 92))
(assert (= (select (select distances 4) 4) 0))
(assert (= (select (select distances 4) 5) 47))
(assert (= (select (select distances 4) 6) 93))
(assert (= (select (select distances 4) 7) 82))
(assert (= (select (select distances 4) 8) 26))
(assert (= (select (select distances 4) 9) 52))
(assert (= (select (select distances 4) 10) 38))
(assert (= (select (select distances 5) 0) 128))
(assert (= (select (select distances 5) 1) 87))
(assert (= (select (select distances 5) 2) 43))
(assert (= (select (select distances 5) 3) 116))
(assert (= (select (select distances 5) 4) 47))
(assert (= (select (select distances 5) 5) 0))
(assert (= (select (select distances 5) 6) 117))
(assert (= (select (select distances 5) 7) 52))
(assert (= (select (select distances 5) 8) 58))
(assert (= (select (select distances 5) 9) 76))
(assert (= (select (select distances 5) 10) 75))
(assert (= (select (select distances 6) 0) 116))
(assert (= (select (select distances 6) 1) 61))
(assert (= (select (select distances 6) 2) 110))
(assert (= (select (select distances 6) 3) 30))
(assert (= (select (select distances 6) 4) 93))
(assert (= (select (select distances 6) 5) 117))
(assert (= (select (select distances 6) 6) 0))
(assert (= (select (select distances 6) 7) 65))
(assert (= (select (select distances 6) 8) 67))
(assert (= (select (select distances 6) 9) 41))
(assert (= (select (select distances 6) 10) 63))
(assert (= (select (select distances 7) 0) 163))
(assert (= (select (select distances 7) 1) 107))
(assert (= (select (select distances 7) 2) 78))
(assert (= (select (select distances 7) 3) 77))
(assert (= (select (select distances 7) 4) 82))
(assert (= (select (select distances 7) 5) 52))
(assert (= (select (select distances 7) 6) 65))
(assert (= (select (select distances 7) 7) 0))
(assert (= (select (select distances 7) 8) 93))
(assert (= (select (select distances 7) 9) 70))
(assert (= (select (select distances 7) 10) 110))
(assert (= (select (select distances 8) 0) 70))
(assert (= (select (select distances 8) 1) 41))
(assert (= (select (select distances 8) 2) 43))
(assert (= (select (select distances 8) 3) 66))
(assert (= (select (select distances 8) 4) 26))
(assert (= (select (select distances 8) 5) 73))
(assert (= (select (select distances 8) 6) 67))
(assert (= (select (select distances 8) 7) 93))
(assert (= (select (select distances 8) 8) 0))
(assert (= (select (select distances 8) 9) 26))
(assert (= (select (select distances 8) 10) 17))
(assert (= (select (select distances 9) 0) 93))
(assert (= (select (select distances 9) 1) 37))
(assert (= (select (select distances 9) 2) 69))
(assert (= (select (select distances 9) 3) 40))
(assert (= (select (select distances 9) 4) 52))
(assert (= (select (select distances 9) 5) 76))
(assert (= (select (select distances 9) 6) 41))
(assert (= (select (select distances 9) 7) 70))
(assert (= (select (select distances 9) 8) 26))
(assert (= (select (select distances 9) 9) 0))
(assert (= (select (select distances 9) 10) 40))
(assert (= (select (select distances 10) 0) 53))
(assert (= (select (select distances 10) 1) 24))
(assert (= (select (select distances 10) 2) 55))
(assert (= (select (select distances 10) 3) 54))
(assert (= (select (select distances 10) 4) 38))
(assert (= (select (select distances 10) 5) 75))
(assert (= (select (select distances 10) 6) 63))
(assert (= (select (select distances 10) 7) 110))
(assert (= (select (select distances 10) 8) 17))
(assert (= (select (select distances 10) 9) 40))
(assert (= (select (select distances 10) 10) 0))
(assert (= (select s 0) 10))
(assert (= (select s 1) 25))
(assert (= (select s 2) 18))
(assert (= (select s 3) 16))
(assert (= (select s 4) 14))
(assert (= (select s 5) 16))
(assert (= (select s 6) 24))
(assert (= (select s 7) 19))
(assert (= (select s 8) 23))
(assert (= (select s 9) 19))
(assert (= (select s 10) 0))
(assert (and (>= x_0_1 0) (<= x_0_1 10)))
(assert (and (>= x_0_2 0) (<= x_0_2 10)))
(assert (and (>= x_0_3 0) (<= x_0_3 10)))
(assert (and (>= x_1_1 0) (<= x_1_1 10)))
(assert (and (>= x_1_2 0) (<= x_1_2 10)))
(assert (and (>= x_1_3 0) (<= x_1_3 10)))
(assert (and (>= x_2_1 0) (<= x_2_1 10)))
(assert (and (>= x_2_2 0) (<= x_2_2 10)))
(assert (and (>= x_2_3 0) (<= x_2_3 10)))
(assert (and (>= x_3_1 0) (<= x_3_1 10)))
(assert (and (>= x_3_2 0) (<= x_3_2 10)))
(assert (and (>= x_3_3 0) (<= x_3_3 10)))
(assert (and (>= x_4_1 0) (<= x_4_1 10)))
(assert (and (>= x_4_2 0) (<= x_4_2 10)))
(assert (and (>= x_4_3 0) (<= x_4_3 10)))
(assert (and (>= x_5_1 0) (<= x_5_1 10)))
(assert (and (>= x_5_2 0) (<= x_5_2 10)))
(assert (and (>= x_5_3 0) (<= x_5_3 10)))
(assert (and (>= x_6_1 0) (<= x_6_1 10)))
(assert (and (>= x_6_2 0) (<= x_6_2 10)))
(assert (and (>= x_6_3 0) (<= x_6_3 10)))
(assert (and (>= x_7_1 0) (<= x_7_1 10)))
(assert (and (>= x_7_2 0) (<= x_7_2 10)))
(assert (and (>= x_7_3 0) (<= x_7_3 10)))
(assert (and (= x_0_0 10) (= x_0_4 10)))
(assert (and (= x_1_0 10) (= x_1_4 10)))
(assert (and (= x_2_0 10) (= x_2_4 10)))
(assert (and (= x_3_0 10) (= x_3_4 10)))
(assert (and (= x_4_0 10) (= x_4_4 10)))
(assert (and (= x_5_0 10) (= x_5_4 10)))
(assert (and (= x_6_0 10) (= x_6_4 10)))
(assert (and (= x_7_0 10) (= x_7_4 10)))
(assert (= (+ (ite (= x_0_1 0) 1 0)
      (ite (= x_0_2 0) 1 0)
      (ite (= x_0_3 0) 1 0)
      (ite (= x_0_4 0) 1 0)
      (ite (= x_1_1 0) 1 0)
      (ite (= x_1_2 0) 1 0)
      (ite (= x_1_3 0) 1 0)
      (ite (= x_1_4 0) 1 0)
      (ite (= x_2_1 0) 1 0)
      (ite (= x_2_2 0) 1 0)
      (ite (= x_2_3 0) 1 0)
      (ite (= x_2_4 0) 1 0)
      (ite (= x_3_1 0) 1 0)
      (ite (= x_3_2 0) 1 0)
      (ite (= x_3_3 0) 1 0)
      (ite (= x_3_4 0) 1 0)
      (ite (= x_4_1 0) 1 0)
      (ite (= x_4_2 0) 1 0)
      (ite (= x_4_3 0) 1 0)
      (ite (= x_4_4 0) 1 0)
      (ite (= x_5_1 0) 1 0)
      (ite (= x_5_2 0) 1 0)
      (ite (= x_5_3 0) 1 0)
      (ite (= x_5_4 0) 1 0)
      (ite (= x_6_1 0) 1 0)
      (ite (= x_6_2 0) 1 0)
      (ite (= x_6_3 0) 1 0)
      (ite (= x_6_4 0) 1 0)
      (ite (= x_7_1 0) 1 0)
      (ite (= x_7_2 0) 1 0)
      (ite (= x_7_3 0) 1 0)
      (ite (= x_7_4 0) 1 0))
   1))
(assert (= (+ (ite (= x_0_1 1) 1 0)
      (ite (= x_0_2 1) 1 0)
      (ite (= x_0_3 1) 1 0)
      (ite (= x_0_4 1) 1 0)
      (ite (= x_1_1 1) 1 0)
      (ite (= x_1_2 1) 1 0)
      (ite (= x_1_3 1) 1 0)
      (ite (= x_1_4 1) 1 0)
      (ite (= x_2_1 1) 1 0)
      (ite (= x_2_2 1) 1 0)
      (ite (= x_2_3 1) 1 0)
      (ite (= x_2_4 1) 1 0)
      (ite (= x_3_1 1) 1 0)
      (ite (= x_3_2 1) 1 0)
      (ite (= x_3_3 1) 1 0)
      (ite (= x_3_4 1) 1 0)
      (ite (= x_4_1 1) 1 0)
      (ite (= x_4_2 1) 1 0)
      (ite (= x_4_3 1) 1 0)
      (ite (= x_4_4 1) 1 0)
      (ite (= x_5_1 1) 1 0)
      (ite (= x_5_2 1) 1 0)
      (ite (= x_5_3 1) 1 0)
      (ite (= x_5_4 1) 1 0)
      (ite (= x_6_1 1) 1 0)
      (ite (= x_6_2 1) 1 0)
      (ite (= x_6_3 1) 1 0)
      (ite (= x_6_4 1) 1 0)
      (ite (= x_7_1 1) 1 0)
      (ite (= x_7_2 1) 1 0)
      (ite (= x_7_3 1) 1 0)
      (ite (= x_7_4 1) 1 0))
   1))
(assert (= (+ (ite (= x_0_1 2) 1 0)
      (ite (= x_0_2 2) 1 0)
      (ite (= x_0_3 2) 1 0)
      (ite (= x_0_4 2) 1 0)
      (ite (= x_1_1 2) 1 0)
      (ite (= x_1_2 2) 1 0)
      (ite (= x_1_3 2) 1 0)
      (ite (= x_1_4 2) 1 0)
      (ite (= x_2_1 2) 1 0)
      (ite (= x_2_2 2) 1 0)
      (ite (= x_2_3 2) 1 0)
      (ite (= x_2_4 2) 1 0)
      (ite (= x_3_1 2) 1 0)
      (ite (= x_3_2 2) 1 0)
      (ite (= x_3_3 2) 1 0)
      (ite (= x_3_4 2) 1 0)
      (ite (= x_4_1 2) 1 0)
      (ite (= x_4_2 2) 1 0)
      (ite (= x_4_3 2) 1 0)
      (ite (= x_4_4 2) 1 0)
      (ite (= x_5_1 2) 1 0)
      (ite (= x_5_2 2) 1 0)
      (ite (= x_5_3 2) 1 0)
      (ite (= x_5_4 2) 1 0)
      (ite (= x_6_1 2) 1 0)
      (ite (= x_6_2 2) 1 0)
      (ite (= x_6_3 2) 1 0)
      (ite (= x_6_4 2) 1 0)
      (ite (= x_7_1 2) 1 0)
      (ite (= x_7_2 2) 1 0)
      (ite (= x_7_3 2) 1 0)
      (ite (= x_7_4 2) 1 0))
   1))
(assert (= (+ (ite (= x_0_1 3) 1 0)
      (ite (= x_0_2 3) 1 0)
      (ite (= x_0_3 3) 1 0)
      (ite (= x_0_4 3) 1 0)
      (ite (= x_1_1 3) 1 0)
      (ite (= x_1_2 3) 1 0)
      (ite (= x_1_3 3) 1 0)
      (ite (= x_1_4 3) 1 0)
      (ite (= x_2_1 3) 1 0)
      (ite (= x_2_2 3) 1 0)
      (ite (= x_2_3 3) 1 0)
      (ite (= x_2_4 3) 1 0)
      (ite (= x_3_1 3) 1 0)
      (ite (= x_3_2 3) 1 0)
      (ite (= x_3_3 3) 1 0)
      (ite (= x_3_4 3) 1 0)
      (ite (= x_4_1 3) 1 0)
      (ite (= x_4_2 3) 1 0)
      (ite (= x_4_3 3) 1 0)
      (ite (= x_4_4 3) 1 0)
      (ite (= x_5_1 3) 1 0)
      (ite (= x_5_2 3) 1 0)
      (ite (= x_5_3 3) 1 0)
      (ite (= x_5_4 3) 1 0)
      (ite (= x_6_1 3) 1 0)
      (ite (= x_6_2 3) 1 0)
      (ite (= x_6_3 3) 1 0)
      (ite (= x_6_4 3) 1 0)
      (ite (= x_7_1 3) 1 0)
      (ite (= x_7_2 3) 1 0)
      (ite (= x_7_3 3) 1 0)
      (ite (= x_7_4 3) 1 0))
   1))
(assert (= (+ (ite (= x_0_1 4) 1 0)
      (ite (= x_0_2 4) 1 0)
      (ite (= x_0_3 4) 1 0)
      (ite (= x_0_4 4) 1 0)
      (ite (= x_1_1 4) 1 0)
      (ite (= x_1_2 4) 1 0)
      (ite (= x_1_3 4) 1 0)
      (ite (= x_1_4 4) 1 0)
      (ite (= x_2_1 4) 1 0)
      (ite (= x_2_2 4) 1 0)
      (ite (= x_2_3 4) 1 0)
      (ite (= x_2_4 4) 1 0)
      (ite (= x_3_1 4) 1 0)
      (ite (= x_3_2 4) 1 0)
      (ite (= x_3_3 4) 1 0)
      (ite (= x_3_4 4) 1 0)
      (ite (= x_4_1 4) 1 0)
      (ite (= x_4_2 4) 1 0)
      (ite (= x_4_3 4) 1 0)
      (ite (= x_4_4 4) 1 0)
      (ite (= x_5_1 4) 1 0)
      (ite (= x_5_2 4) 1 0)
      (ite (= x_5_3 4) 1 0)
      (ite (= x_5_4 4) 1 0)
      (ite (= x_6_1 4) 1 0)
      (ite (= x_6_2 4) 1 0)
      (ite (= x_6_3 4) 1 0)
      (ite (= x_6_4 4) 1 0)
      (ite (= x_7_1 4) 1 0)
      (ite (= x_7_2 4) 1 0)
      (ite (= x_7_3 4) 1 0)
      (ite (= x_7_4 4) 1 0))
   1))
(assert (= (+ (ite (= x_0_1 5) 1 0)
      (ite (= x_0_2 5) 1 0)
      (ite (= x_0_3 5) 1 0)
      (ite (= x_0_4 5) 1 0)
      (ite (= x_1_1 5) 1 0)
      (ite (= x_1_2 5) 1 0)
      (ite (= x_1_3 5) 1 0)
      (ite (= x_1_4 5) 1 0)
      (ite (= x_2_1 5) 1 0)
      (ite (= x_2_2 5) 1 0)
      (ite (= x_2_3 5) 1 0)
      (ite (= x_2_4 5) 1 0)
      (ite (= x_3_1 5) 1 0)
      (ite (= x_3_2 5) 1 0)
      (ite (= x_3_3 5) 1 0)
      (ite (= x_3_4 5) 1 0)
      (ite (= x_4_1 5) 1 0)
      (ite (= x_4_2 5) 1 0)
      (ite (= x_4_3 5) 1 0)
      (ite (= x_4_4 5) 1 0)
      (ite (= x_5_1 5) 1 0)
      (ite (= x_5_2 5) 1 0)
      (ite (= x_5_3 5) 1 0)
      (ite (= x_5_4 5) 1 0)
      (ite (= x_6_1 5) 1 0)
      (ite (= x_6_2 5) 1 0)
      (ite (= x_6_3 5) 1 0)
      (ite (= x_6_4 5) 1 0)
      (ite (= x_7_1 5) 1 0)
      (ite (= x_7_2 5) 1 0)
      (ite (= x_7_3 5) 1 0)
      (ite (= x_7_4 5) 1 0))
   1))
(assert (= (+ (ite (= x_0_1 6) 1 0)
      (ite (= x_0_2 6) 1 0)
      (ite (= x_0_3 6) 1 0)
      (ite (= x_0_4 6) 1 0)
      (ite (= x_1_1 6) 1 0)
      (ite (= x_1_2 6) 1 0)
      (ite (= x_1_3 6) 1 0)
      (ite (= x_1_4 6) 1 0)
      (ite (= x_2_1 6) 1 0)
      (ite (= x_2_2 6) 1 0)
      (ite (= x_2_3 6) 1 0)
      (ite (= x_2_4 6) 1 0)
      (ite (= x_3_1 6) 1 0)
      (ite (= x_3_2 6) 1 0)
      (ite (= x_3_3 6) 1 0)
      (ite (= x_3_4 6) 1 0)
      (ite (= x_4_1 6) 1 0)
      (ite (= x_4_2 6) 1 0)
      (ite (= x_4_3 6) 1 0)
      (ite (= x_4_4 6) 1 0)
      (ite (= x_5_1 6) 1 0)
      (ite (= x_5_2 6) 1 0)
      (ite (= x_5_3 6) 1 0)
      (ite (= x_5_4 6) 1 0)
      (ite (= x_6_1 6) 1 0)
      (ite (= x_6_2 6) 1 0)
      (ite (= x_6_3 6) 1 0)
      (ite (= x_6_4 6) 1 0)
      (ite (= x_7_1 6) 1 0)
      (ite (= x_7_2 6) 1 0)
      (ite (= x_7_3 6) 1 0)
      (ite (= x_7_4 6) 1 0))
   1))
(assert (= (+ (ite (= x_0_1 7) 1 0)
      (ite (= x_0_2 7) 1 0)
      (ite (= x_0_3 7) 1 0)
      (ite (= x_0_4 7) 1 0)
      (ite (= x_1_1 7) 1 0)
      (ite (= x_1_2 7) 1 0)
      (ite (= x_1_3 7) 1 0)
      (ite (= x_1_4 7) 1 0)
      (ite (= x_2_1 7) 1 0)
      (ite (= x_2_2 7) 1 0)
      (ite (= x_2_3 7) 1 0)
      (ite (= x_2_4 7) 1 0)
      (ite (= x_3_1 7) 1 0)
      (ite (= x_3_2 7) 1 0)
      (ite (= x_3_3 7) 1 0)
      (ite (= x_3_4 7) 1 0)
      (ite (= x_4_1 7) 1 0)
      (ite (= x_4_2 7) 1 0)
      (ite (= x_4_3 7) 1 0)
      (ite (= x_4_4 7) 1 0)
      (ite (= x_5_1 7) 1 0)
      (ite (= x_5_2 7) 1 0)
      (ite (= x_5_3 7) 1 0)
      (ite (= x_5_4 7) 1 0)
      (ite (= x_6_1 7) 1 0)
      (ite (= x_6_2 7) 1 0)
      (ite (= x_6_3 7) 1 0)
      (ite (= x_6_4 7) 1 0)
      (ite (= x_7_1 7) 1 0)
      (ite (= x_7_2 7) 1 0)
      (ite (= x_7_3 7) 1 0)
      (ite (= x_7_4 7) 1 0))
   1))
(assert (= (+ (ite (= x_0_1 8) 1 0)
      (ite (= x_0_2 8) 1 0)
      (ite (= x_0_3 8) 1 0)
      (ite (= x_0_4 8) 1 0)
      (ite (= x_1_1 8) 1 0)
      (ite (= x_1_2 8) 1 0)
      (ite (= x_1_3 8) 1 0)
      (ite (= x_1_4 8) 1 0)
      (ite (= x_2_1 8) 1 0)
      (ite (= x_2_2 8) 1 0)
      (ite (= x_2_3 8) 1 0)
      (ite (= x_2_4 8) 1 0)
      (ite (= x_3_1 8) 1 0)
      (ite (= x_3_2 8) 1 0)
      (ite (= x_3_3 8) 1 0)
      (ite (= x_3_4 8) 1 0)
      (ite (= x_4_1 8) 1 0)
      (ite (= x_4_2 8) 1 0)
      (ite (= x_4_3 8) 1 0)
      (ite (= x_4_4 8) 1 0)
      (ite (= x_5_1 8) 1 0)
      (ite (= x_5_2 8) 1 0)
      (ite (= x_5_3 8) 1 0)
      (ite (= x_5_4 8) 1 0)
      (ite (= x_6_1 8) 1 0)
      (ite (= x_6_2 8) 1 0)
      (ite (= x_6_3 8) 1 0)
      (ite (= x_6_4 8) 1 0)
      (ite (= x_7_1 8) 1 0)
      (ite (= x_7_2 8) 1 0)
      (ite (= x_7_3 8) 1 0)
      (ite (= x_7_4 8) 1 0))
   1))
(assert (= (+ (ite (= x_0_1 9) 1 0)
      (ite (= x_0_2 9) 1 0)
      (ite (= x_0_3 9) 1 0)
      (ite (= x_0_4 9) 1 0)
      (ite (= x_1_1 9) 1 0)
      (ite (= x_1_2 9) 1 0)
      (ite (= x_1_3 9) 1 0)
      (ite (= x_1_4 9) 1 0)
      (ite (= x_2_1 9) 1 0)
      (ite (= x_2_2 9) 1 0)
      (ite (= x_2_3 9) 1 0)
      (ite (= x_2_4 9) 1 0)
      (ite (= x_3_1 9) 1 0)
      (ite (= x_3_2 9) 1 0)
      (ite (= x_3_3 9) 1 0)
      (ite (= x_3_4 9) 1 0)
      (ite (= x_4_1 9) 1 0)
      (ite (= x_4_2 9) 1 0)
      (ite (= x_4_3 9) 1 0)
      (ite (= x_4_4 9) 1 0)
      (ite (= x_5_1 9) 1 0)
      (ite (= x_5_2 9) 1 0)
      (ite (= x_5_3 9) 1 0)
      (ite (= x_5_4 9) 1 0)
      (ite (= x_6_1 9) 1 0)
      (ite (= x_6_2 9) 1 0)
      (ite (= x_6_3 9) 1 0)
      (ite (= x_6_4 9) 1 0)
      (ite (= x_7_1 9) 1 0)
      (ite (= x_7_2 9) 1 0)
      (ite (= x_7_3 9) 1 0)
      (ite (= x_7_4 9) 1 0))
   1))
(assert (= load_0 (+ (select s x_0_1) (select s x_0_2) (select s x_0_3))))
(assert (<= load_0 200))
(assert (= load_1 (+ (select s x_1_1) (select s x_1_2) (select s x_1_3))))
(assert (<= load_1 180))
(assert (= load_2 (+ (select s x_2_1) (select s x_2_2) (select s x_2_3))))
(assert (<= load_2 160))
(assert (= load_3 (+ (select s x_3_1) (select s x_3_2) (select s x_3_3))))
(assert (<= load_3 185))
(assert (= load_4 (+ (select s x_4_1) (select s x_4_2) (select s x_4_3))))
(assert (<= load_4 180))
(assert (= load_5 (+ (select s x_5_1) (select s x_5_2) (select s x_5_3))))
(assert (<= load_5 200))
(assert (= load_6 (+ (select s x_6_1) (select s x_6_2) (select s x_6_3))))
(assert (<= load_6 160))
(assert (= load_7 (+ (select s x_7_1) (select s x_7_2) (select s x_7_3))))
(assert (<= load_7 200))
(assert (and (<= 10 load_0) (>= 91 load_0)))
(assert (and (<= 10 load_1) (>= 91 load_1)))
(assert (and (<= 10 load_2) (>= 91 load_2)))
(assert (and (<= 10 load_3) (>= 91 load_3)))
(assert (and (<= 10 load_4) (>= 91 load_4)))
(assert (and (<= 10 load_5) (>= 91 load_5)))
(assert (and (<= 10 load_6) (>= 91 load_6)))
(assert (and (<= 10 load_7) (>= 91 load_7)))
(assert (=> (= x_0_1 10) (= x_0_2 10)))
(assert (=> (= x_0_2 10) (= x_0_3 10)))
(assert (=> (= x_0_3 10) (= x_0_4 10)))
(assert (=> (= x_1_1 10) (= x_1_2 10)))
(assert (=> (= x_1_2 10) (= x_1_3 10)))
(assert (=> (= x_1_3 10) (= x_1_4 10)))
(assert (=> (= x_2_1 10) (= x_2_2 10)))
(assert (=> (= x_2_2 10) (= x_2_3 10)))
(assert (=> (= x_2_3 10) (= x_2_4 10)))
(assert (=> (= x_3_1 10) (= x_3_2 10)))
(assert (=> (= x_3_2 10) (= x_3_3 10)))
(assert (=> (= x_3_3 10) (= x_3_4 10)))
(assert (=> (= x_4_1 10) (= x_4_2 10)))
(assert (=> (= x_4_2 10) (= x_4_3 10)))
(assert (=> (= x_4_3 10) (= x_4_4 10)))
(assert (=> (= x_5_1 10) (= x_5_2 10)))
(assert (=> (= x_5_2 10) (= x_5_3 10)))
(assert (=> (= x_5_3 10) (= x_5_4 10)))
(assert (=> (= x_6_1 10) (= x_6_2 10)))
(assert (=> (= x_6_2 10) (= x_6_3 10)))
(assert (=> (= x_6_3 10) (= x_6_4 10)))
(assert (=> (= x_7_1 10) (= x_7_2 10)))
(assert (=> (= x_7_2 10) (= x_7_3 10)))
(assert (=> (= x_7_3 10) (= x_7_4 10)))
(assert (=> false
    (<= (ite (distinct x_0_1 10) x_0_1 (- 1))
        (ite (distinct x_0_1 10) x_0_1 (- 1)))))
(assert (=> false
    (<= (ite (distinct x_0_1 10) x_0_1 (- 1))
        (ite (distinct x_0_1 10) x_0_1 (- 1)))))
(assert (=> false
    (<= (ite (distinct x_0_1 10) x_0_1 (- 1))
        (ite (distinct x_0_1 10) x_0_1 (- 1)))))
(assert (=> false
    (<= (ite (distinct x_0_1 10) x_0_1 (- 1))
        (ite (distinct x_0_1 10) x_0_1 (- 1)))))
(assert (=> true
    (<= (ite (distinct x_0_1 10) x_0_1 (- 1))
        (ite (distinct x_0_1 10) x_0_1 (- 1)))))
(assert (=> false
    (<= (ite (distinct x_0_1 10) x_0_1 (- 1))
        (ite (distinct x_0_1 10) x_0_1 (- 1)))))
(assert (=> true
    (<= (ite (distinct x_0_1 10) x_0_1 (- 1))
        (ite (distinct x_0_1 10) x_0_1 (- 1)))))
(assert (=> false
    (<= (ite (distinct x_1_1 10) x_1_1 (- 1))
        (ite (distinct x_1_1 10) x_1_1 (- 1)))))
(assert (=> false
    (<= (ite (distinct x_1_1 10) x_1_1 (- 1))
        (ite (distinct x_1_1 10) x_1_1 (- 1)))))
(assert (=> true
    (<= (ite (distinct x_1_1 10) x_1_1 (- 1))
        (ite (distinct x_1_1 10) x_1_1 (- 1)))))
(assert (=> false
    (<= (ite (distinct x_1_1 10) x_1_1 (- 1))
        (ite (distinct x_1_1 10) x_1_1 (- 1)))))
(assert (=> false
    (<= (ite (distinct x_1_1 10) x_1_1 (- 1))
        (ite (distinct x_1_1 10) x_1_1 (- 1)))))
(assert (=> false
    (<= (ite (distinct x_1_1 10) x_1_1 (- 1))
        (ite (distinct x_1_1 10) x_1_1 (- 1)))))
(assert (=> false
    (<= (ite (distinct x_2_1 10) x_2_1 (- 1))
        (ite (distinct x_2_1 10) x_2_1 (- 1)))))
(assert (=> false
    (<= (ite (distinct x_2_1 10) x_2_1 (- 1))
        (ite (distinct x_2_1 10) x_2_1 (- 1)))))
(assert (=> false
    (<= (ite (distinct x_2_1 10) x_2_1 (- 1))
        (ite (distinct x_2_1 10) x_2_1 (- 1)))))
(assert (=> true
    (<= (ite (distinct x_2_1 10) x_2_1 (- 1))
        (ite (distinct x_2_1 10) x_2_1 (- 1)))))
(assert (=> false
    (<= (ite (distinct x_2_1 10) x_2_1 (- 1))
        (ite (distinct x_2_1 10) x_2_1 (- 1)))))
(assert (=> false
    (<= (ite (distinct x_3_1 10) x_3_1 (- 1))
        (ite (distinct x_3_1 10) x_3_1 (- 1)))))
(assert (=> false
    (<= (ite (distinct x_3_1 10) x_3_1 (- 1))
        (ite (distinct x_3_1 10) x_3_1 (- 1)))))
(assert (=> false
    (<= (ite (distinct x_3_1 10) x_3_1 (- 1))
        (ite (distinct x_3_1 10) x_3_1 (- 1)))))
(assert (=> false
    (<= (ite (distinct x_3_1 10) x_3_1 (- 1))
        (ite (distinct x_3_1 10) x_3_1 (- 1)))))
(assert (=> false
    (<= (ite (distinct x_4_1 10) x_4_1 (- 1))
        (ite (distinct x_4_1 10) x_4_1 (- 1)))))
(assert (=> false
    (<= (ite (distinct x_4_1 10) x_4_1 (- 1))
        (ite (distinct x_4_1 10) x_4_1 (- 1)))))
(assert (=> false
    (<= (ite (distinct x_4_1 10) x_4_1 (- 1))
        (ite (distinct x_4_1 10) x_4_1 (- 1)))))
(assert (=> false
    (<= (ite (distinct x_5_1 10) x_5_1 (- 1))
        (ite (distinct x_5_1 10) x_5_1 (- 1)))))
(assert (=> true
    (<= (ite (distinct x_5_1 10) x_5_1 (- 1))
        (ite (distinct x_5_1 10) x_5_1 (- 1)))))
(assert (=> false
    (<= (ite (distinct x_6_1 10) x_6_1 (- 1))
        (ite (distinct x_6_1 10) x_6_1 (- 1)))))
(assert (=> false (<= load_0 load_1)))
(assert (=> false (<= load_0 load_2)))
(assert (=> false (<= load_0 load_3)))
(assert (=> false (<= load_0 load_4)))
(assert (=> true (<= load_0 load_5)))
(assert (=> false (<= load_0 load_6)))
(assert (=> true (<= load_0 load_7)))
(assert (=> false (<= load_1 load_2)))
(assert (=> true (<= load_1 load_3)))
(assert (=> true (<= load_1 load_4)))
(assert (=> true (<= load_1 load_5)))
(assert (=> false (<= load_1 load_6)))
(assert (=> true (<= load_1 load_7)))
(assert (=> true (<= load_2 load_3)))
(assert (=> true (<= load_2 load_4)))
(assert (=> true (<= load_2 load_5)))
(assert (=> true (<= load_2 load_6)))
(assert (=> true (<= load_2 load_7)))
(assert (=> false (<= load_3 load_4)))
(assert (=> true (<= load_3 load_5)))
(assert (=> false (<= load_3 load_6)))
(assert (=> true (<= load_3 load_7)))
(assert (=> true (<= load_4 load_5)))
(assert (=> false (<= load_4 load_6)))
(assert (=> true (<= load_4 load_7)))
(assert (=> false (<= load_5 load_6)))
(assert (=> true (<= load_5 load_7)))
(assert (=> true (<= load_6 load_7)))
(assert (= y_0
   (+ (select (select distances x_0_0) x_0_1)
      (select (select distances x_0_1) x_0_2)
      (select (select distances x_0_2) x_0_3)
      (select (select distances x_0_3) x_0_4))))
(assert (= y_1
   (+ (select (select distances x_1_0) x_1_1)
      (select (select distances x_1_1) x_1_2)
      (select (select distances x_1_2) x_1_3)
      (select (select distances x_1_3) x_1_4))))
(assert (= y_2
   (+ (select (select distances x_2_0) x_2_1)
      (select (select distances x_2_1) x_2_2)
      (select (select distances x_2_2) x_2_3)
      (select (select distances x_2_3) x_2_4))))
(assert (= y_3
   (+ (select (select distances x_3_0) x_3_1)
      (select (select distances x_3_1) x_3_2)
      (select (select distances x_3_2) x_3_3)
      (select (select distances x_3_3) x_3_4))))
(assert (= y_4
   (+ (select (select distances x_4_0) x_4_1)
      (select (select distances x_4_1) x_4_2)
      (select (select distances x_4_2) x_4_3)
      (select (select distances x_4_3) x_4_4))))
(assert (= y_5
   (+ (select (select distances x_5_0) x_5_1)
      (select (select distances x_5_1) x_5_2)
      (select (select distances x_5_2) x_5_3)
      (select (select distances x_5_3) x_5_4))))
(assert (= y_6
   (+ (select (select distances x_6_0) x_6_1)
      (select (select distances x_6_1) x_6_2)
      (select (select distances x_6_2) x_6_3)
      (select (select distances x_6_3) x_6_4))))
(assert (= y_7
   (+ (select (select distances x_7_0) x_7_1)
      (select (select distances x_7_1) x_7_2)
      (select (select distances x_7_2) x_7_3)
      (select (select distances x_7_3) x_7_4))))
(assert (and (<= 34 y_0) (>= 690 y_0)))
(assert (and (<= 34 y_1) (>= 690 y_1)))
(assert (and (<= 34 y_2) (>= 690 y_2)))
(assert (and (<= 34 y_3) (>= 690 y_3)))
(assert (and (<= 34 y_4) (>= 690 y_4)))
(assert (and (<= 34 y_5) (>= 690 y_5)))
(assert (and (<= 34 y_6) (>= 690 y_6)))
(assert (and (<= 34 y_7) (>= 690 y_7)))
(assert (let ((a!1 (ite (> y_2 (ite (> y_1 y_0) y_1 y_0)) y_2 (ite (> y_1 y_0) y_1 y_0))))
(let ((a!2 (ite (> y_4 (ite (> y_3 a!1) y_3 a!1)) y_4 (ite (> y_3 a!1) y_3 a!1))))
(let ((a!3 (ite (> y_6 (ite (> y_5 a!2) y_5 a!2)) y_6 (ite (> y_5 a!2) y_5 a!2))))
  (= max_distance (ite (> y_7 a!3) y_7 a!3))))))
(assert (<= 220 max_distance))

(assert (<= max_distance 220))
(assert (>= max_distance 220))
(check-sat)
(get-value (x_0_0))
(get-value (x_0_1))
(get-value (x_0_2))
(get-value (x_0_3))
(get-value (x_0_4))
(get-value (x_1_0))
(get-value (x_1_1))
(get-value (x_1_2))
(get-value (x_1_3))
(get-value (x_1_4))
(get-value (x_2_0))
(get-value (x_2_1))
(get-value (x_2_2))
(get-value (x_2_3))
(get-value (x_2_4))
(get-value (x_3_0))
(get-value (x_3_1))
(get-value (x_3_2))
(get-value (x_3_3))
(get-value (x_3_4))
(get-value (x_4_0))
(get-value (x_4_1))
(get-value (x_4_2))
(get-value (x_4_3))
(get-value (x_4_4))
(get-value (x_5_0))
(get-value (x_5_1))
(get-value (x_5_2))
(get-value (x_5_3))
(get-value (x_5_4))
(get-value (x_6_0))
(get-value (x_6_1))
(get-value (x_6_2))
(get-value (x_6_3))
(get-value (x_6_4))
(get-value (x_7_0))
(get-value (x_7_1))
(get-value (x_7_2))
(get-value (x_7_3))
(get-value (x_7_4))